c colouring generated by benchmark framework
p edge 1000 449449
v 1 96
v 2 104
v 3 229
v 4 252
v 5 208
v 6 117
v 7 286
v 8 40
v 9 83
v 10 255
v 11 251
v 12 248
v 13 125
v 14 173
v 15 270
v 16 168
v 17 274
v 18 195
v 19 196
v 20 280
v 21 305
v 22 40
v 23 258
v 24 22
v 25 163
v 26 269
v 27 95
v 28 232
v 29 313
v 30 35
v 31 129
v 32 94
v 33 76
v 34 91
v 35 98
v 36 14
v 37 310
v 38 80
v 39 198
v 40 291
v 41 176
v 42 271
v 43 233
v 44 192
v 45 161
v 46 266
v 47 46
v 48 290
v 49 91
v 50 262
v 51 89
v 52 288
v 53 286
v 54 334
v 55 287
v 56 336
v 57 171
v 58 185
v 59 32
v 60 111
v 61 110
v 62 338
v 63 56
v 64 221
v 65 143
v 66 55
v 67 103
v 68 172
v 69 301
v 70 284
v 71 135
v 72 124
v 73 84
v 74 272
v 75 265
v 76 138
v 77 70
v 78 52
v 79 24
v 80 79
v 81 78
v 82 94
v 83 36
v 84 0
v 85 21
v 86 84
v 87 193
v 88 311
v 89 204
v 90 237
v 91 26
v 92 301
v 93 112
v 94 156
v 95 93
v 96 325
v 97 216
v 98 240
v 99 134
v 100 194
v 101 18
v 102 267
v 103 141
v 104 52
v 105 125
v 106 225
v 107 183
v 108 86
v 109 72
v 110 2
v 111 85
v 112 69
v 113 115
v 114 337
v 115 25
v 116 96
v 117 268
v 118 209
v 119 49
v 120 346
v 121 216
v 122 238
v 123 68
v 124 166
v 125 236
v 126 148
v 127 29
v 128 12
v 129 210
v 130 193
v 131 77
v 132 51
v 133 180
v 134 287
v 135 75
v 136 152
v 137 137
v 138 95
v 139 206
v 140 188
v 141 92
v 142 27
v 143 181
v 144 234
v 145 114
v 146 94
v 147 194
v 148 68
v 149 83
v 150 228
v 151 39
v 152 175
v 153 75
v 154 105
v 155 237
v 156 328
v 157 46
v 158 161
v 159 156
v 160 3
v 161 70
v 162 245
v 163 31
v 164 155
v 165 306
v 166 88
v 167 15
v 168 106
v 169 216
v 170 326
v 171 145
v 172 246
v 173 79
v 174 213
v 175 315
v 176 132
v 177 72
v 178 66
v 179 131
v 180 168
v 181 298
v 182 138
v 183 61
v 184 154
v 185 303
v 186 130
v 187 211
v 188 214
v 189 192
v 190 16
v 191 128
v 192 157
v 193 295
v 194 31
v 195 127
v 196 228
v 197 49
v 198 279
v 199 321
v 200 43
v 201 93
v 202 158
v 203 180
v 204 26
v 205 142
v 206 71
v 207 174
v 208 118
v 209 160
v 210 166
v 211 185
v 212 249
v 213 15
v 214 299
v 215 106
v 216 94
v 217 187
v 218 30
v 219 177
v 220 65
v 221 41
v 222 200
v 223 215
v 224 68
v 225 201
v 226 54
v 227 271
v 228 266
v 229 224
v 230 316
v 231 97
v 232 85
v 233 49
v 234 123
v 235 166
v 236 284
v 237 33
v 238 17
v 239 164
v 240 282
v 241 327
v 242 285
v 243 300
v 244 102
v 245 244
v 246 8
v 247 190
v 248 184
v 249 14
v 250 245
v 251 56
v 252 76
v 253 67
v 254 242
v 255 69
v 256 189
v 257 73
v 258 97
v 259 283
v 260 21
v 261 58
v 262 30
v 263 178
v 264 251
v 265 45
v 266 23
v 267 333
v 268 7
v 269 220
v 270 296
v 271 58
v 272 138
v 273 248
v 274 331
v 275 162
v 276 65
v 277 179
v 278 55
v 279 127
v 280 236
v 281 283
v 282 134
v 283 66
v 284 246
v 285 12
v 286 4
v 287 169
v 288 152
v 289 213
v 290 60
v 291 44
v 292 270
v 293 81
v 294 187
v 295 46
v 296 1
v 297 275
v 298 9
v 299 203
v 300 189
v 301 50
v 302 77
v 303 96
v 304 80
v 305 219
v 306 43
v 307 45
v 308 324
v 309 221
v 310 93
v 311 149
v 312 38
v 313 145
v 314 215
v 315 184
v 316 175
v 317 140
v 318 110
v 319 335
v 320 101
v 321 0
v 322 108
v 323 214
v 324 295
v 325 333
v 326 64
v 327 277
v 328 153
v 329 236
v 330 289
v 331 296
v 332 27
v 333 108
v 334 187
v 335 80
v 336 316
v 337 51
v 338 62
v 339 143
v 340 107
v 341 63
v 342 62
v 343 57
v 344 39
v 345 273
v 346 98
v 347 109
v 348 11
v 349 23
v 350 244
v 351 173
v 352 237
v 353 254
v 354 211
v 355 159
v 356 230
v 357 86
v 358 192
v 359 249
v 360 294
v 361 213
v 362 54
v 363 169
v 364 89
v 365 154
v 366 148
v 367 137
v 368 258
v 369 17
v 370 109
v 371 285
v 372 196
v 373 245
v 374 176
v 375 119
v 376 215
v 377 225
v 378 82
v 379 28
v 380 151
v 381 104
v 382 123
v 383 59
v 384 60
v 385 92
v 386 228
v 387 254
v 388 58
v 389 152
v 390 235
v 391 126
v 392 248
v 393 106
v 394 112
v 395 159
v 396 77
v 397 38
v 398 274
v 399 272
v 400 27
v 401 178
v 402 326
v 403 48
v 404 241
v 405 71
v 406 19
v 407 225
v 408 218
v 409 46
v 410 80
v 411 162
v 412 242
v 413 316
v 414 195
v 415 181
v 416 170
v 417 282
v 418 149
v 419 81
v 420 142
v 421 244
v 422 318
v 423 343
v 424 209
v 425 257
v 426 59
v 427 91
v 428 240
v 429 195
v 430 308
v 431 129
v 432 64
v 433 267
v 434 170
v 435 241
v 436 172
v 437 83
v 438 90
v 439 293
v 440 10
v 441 69
v 442 342
v 443 33
v 444 308
v 445 81
v 446 18
v 447 120
v 448 14
v 449 222
v 450 28
v 451 116
v 452 239
v 453 206
v 454 167
v 455 182
v 456 303
v 457 330
v 458 140
v 459 241
v 460 70
v 461 106
v 462 42
v 463 19
v 464 127
v 465 183
v 466 312
v 467 24
v 468 51
v 469 29
v 470 235
v 471 135
v 472 198
v 473 23
v 474 232
v 475 177
v 476 205
v 477 243
v 478 126
v 479 141
v 480 78
v 481 219
v 482 265
v 483 121
v 484 10
v 485 261
v 486 158
v 487 103
v 488 47
v 489 62
v 490 7
v 491 37
v 492 319
v 493 113
v 494 153
v 495 0
v 496 234
v 497 91
v 498 77
v 499 118
v 500 10
v 501 101
v 502 150
v 503 250
v 504 264
v 505 42
v 506 144
v 507 113
v 508 12
v 509 297
v 510 50
v 511 132
v 512 122
v 513 57
v 514 278
v 515 163
v 516 223
v 517 85
v 518 270
v 519 8
v 520 179
v 521 61
v 522 21
v 523 186
v 524 76
v 525 330
v 526 209
v 527 322
v 528 257
v 529 212
v 530 210
v 531 45
v 532 223
v 533 100
v 534 105
v 535 158
v 536 233
v 537 60
v 538 1
v 539 31
v 540 268
v 541 115
v 542 205
v 543 276
v 544 133
v 545 331
v 546 191
v 547 88
v 548 282
v 549 88
v 550 345
v 551 183
v 552 260
v 553 136
v 554 98
v 555 51
v 556 26
v 557 242
v 558 303
v 559 23
v 560 95
v 561 211
v 562 102
v 563 221
v 564 74
v 565 130
v 566 87
v 567 157
v 568 125
v 569 271
v 570 30
v 571 171
v 572 49
v 573 26
v 574 163
v 575 5
v 576 173
v 577 235
v 578 311
v 579 339
v 580 171
v 581 280
v 582 231
v 583 298
v 584 253
v 585 88
v 586 41
v 587 69
v 588 165
v 589 113
v 590 67
v 591 253
v 592 73
v 593 2
v 594 264
v 595 53
v 596 309
v 597 116
v 598 165
v 599 182
v 600 240
v 601 73
v 602 114
v 603 32
v 604 139
v 605 186
v 606 100
v 607 155
v 608 279
v 609 160
v 610 210
v 611 104
v 612 6
v 613 82
v 614 154
v 615 292
v 616 224
v 617 11
v 618 3
v 619 101
v 620 231
v 621 218
v 622 161
v 623 19
v 624 220
v 625 185
v 626 48
v 627 36
v 628 226
v 629 82
v 630 148
v 631 317
v 632 252
v 633 147
v 634 146
v 635 165
v 636 20
v 637 263
v 638 170
v 639 146
v 640 171
v 641 62
v 642 34
v 643 79
v 644 220
v 645 256
v 646 50
v 647 41
v 648 189
v 649 110
v 650 25
v 651 121
v 652 203
v 653 34
v 654 234
v 655 2
v 656 83
v 657 36
v 658 57
v 659 177
v 660 246
v 661 101
v 662 341
v 663 147
v 664 47
v 665 9
v 666 92
v 667 81
v 668 263
v 669 302
v 670 186
v 671 227
v 672 266
v 673 226
v 674 64
v 675 52
v 676 150
v 677 217
v 678 196
v 679 294
v 680 299
v 681 57
v 682 203
v 683 143
v 684 107
v 685 147
v 686 125
v 687 305
v 688 264
v 689 188
v 690 293
v 691 37
v 692 144
v 693 281
v 694 37
v 695 74
v 696 6
v 697 181
v 698 167
v 699 17
v 700 175
v 701 30
v 702 262
v 703 202
v 704 268
v 705 90
v 706 97
v 707 161
v 708 39
v 709 119
v 710 120
v 711 190
v 712 122
v 713 63
v 714 84
v 715 290
v 716 2
v 717 133
v 718 100
v 719 114
v 720 108
v 721 165
v 722 239
v 723 314
v 724 56
v 725 13
v 726 226
v 727 1
v 728 276
v 729 223
v 730 109
v 731 199
v 732 153
v 733 78
v 734 184
v 735 212
v 736 87
v 737 239
v 738 65
v 739 28
v 740 129
v 741 22
v 742 275
v 743 323
v 744 117
v 745 307
v 746 280
v 747 218
v 748 75
v 749 124
v 750 97
v 751 71
v 752 301
v 753 66
v 754 121
v 755 206
v 756 151
v 757 5
v 758 132
v 759 93
v 760 87
v 761 208
v 762 7
v 763 32
v 764 131
v 765 232
v 766 329
v 767 292
v 768 9
v 769 260
v 770 199
v 771 207
v 772 13
v 773 211
v 774 217
v 775 273
v 776 99
v 777 182
v 778 202
v 779 200
v 780 178
v 781 133
v 782 35
v 783 99
v 784 164
v 785 197
v 786 107
v 787 16
v 788 252
v 789 139
v 790 102
v 791 344
v 792 315
v 793 53
v 794 219
v 795 99
v 796 68
v 797 304
v 798 247
v 799 243
v 800 89
v 801 3
v 802 16
v 803 145
v 804 198
v 805 142
v 806 194
v 807 149
v 808 310
v 809 156
v 810 140
v 811 4
v 812 146
v 813 176
v 814 191
v 815 29
v 816 8
v 817 207
v 818 84
v 819 117
v 820 340
v 821 6
v 822 201
v 823 136
v 824 104
v 825 197
v 826 11
v 827 164
v 828 128
v 829 227
v 830 227
v 831 73
v 832 135
v 833 281
v 834 111
v 835 53
v 836 255
v 837 105
v 838 85
v 839 120
v 840 134
v 841 269
v 842 214
v 843 112
v 844 39
v 845 174
v 846 25
v 847 5
v 848 136
v 849 102
v 850 201
v 851 288
v 852 130
v 853 18
v 854 34
v 855 72
v 856 324
v 857 67
v 858 18
v 859 282
v 860 64
v 861 257
v 862 87
v 863 259
v 864 288
v 865 122
v 866 181
v 867 146
v 868 334
v 869 278
v 870 292
v 871 297
v 872 167
v 873 48
v 874 202
v 875 259
v 876 188
v 877 144
v 878 24
v 879 274
v 880 197
v 881 318
v 882 55
v 883 169
v 884 317
v 885 59
v 886 329
v 887 325
v 888 111
v 889 192
v 890 250
v 891 76
v 892 103
v 893 61
v 894 90
v 895 238
v 896 150
v 897 119
v 898 35
v 899 151
v 900 320
v 901 212
v 902 54
v 903 40
v 904 304
v 905 204
v 906 200
v 907 217
v 908 300
v 909 123
v 910 35
v 911 307
v 912 277
v 913 61
v 914 115
v 915 14
v 916 332
v 917 22
v 918 157
v 919 291
v 920 15
v 921 60
v 922 96
v 923 249
v 924 159
v 925 95
v 926 224
v 927 42
v 928 124
v 929 20
v 930 43
v 931 126
v 932 207
v 933 256
v 934 302
v 935 174
v 936 13
v 937 342
v 938 231
v 939 44
v 940 194
v 941 47
v 942 65
v 943 113
v 944 38
v 945 155
v 946 204
v 947 116
v 948 247
v 949 254
v 950 156
v 951 33
v 952 22
v 953 233
v 954 289
v 955 73
v 956 234
v 957 114
v 958 222
v 959 141
v 960 137
v 961 175
v 962 86
v 963 244
v 964 139
v 965 222
v 966 44
v 967 75
v 968 180
v 969 20
v 970 128
v 971 229
v 972 314
v 973 55
v 974 179
v 975 191
v 976 214
v 977 63
v 978 169
v 979 160
v 980 251
v 981 259
v 982 66
v 983 183
v 984 193
v 985 74
v 986 247
v 987 118
v 988 263
v 989 199
v 990 172
v 991 261
v 992 230
v 993 131
v 994 253
v 995 4
v 996 173
v 997 74
v 998 3
v 999 306
v 1000 117
